15 40
25
7 12 0 0
7 7 0 12
1 7 0 33
1 5 0 28
2 3 7 5
2 6 7 13
2 7 13 10
2 5 7 8
1 3 9 16
1 6 12 10
6 12 1 28
6 9 1 19
2 12 13 24
2 7 13 17
3 10 12 0
1 4 0 24
1 5 0 19
3 16 7 19
3 5 7 35
2 4 13 36
2 5 7 0
3 10 10 30
3 9 10 21
3 16 9 0
3 5 10 16
